(set-info :smt-lib-version 2.6)
(set-logic QF_SLIA)
(set-info :source |
Generated by: Denghang Hu
Generated on: 2023-04-14
Application: Evaluate string solvers
Target solver: Ostrich, Z3str3, CVC5
Description: The instance consists of:
(1) a regular membership predicate from the real world
(2) a regular membership predicate to sanitize danger letters in javascript such as <,>,&,",'
(3) a lower bound for string length
|)
(set-info :license "https://creativecommons.org/licenses/by/4.0/")
(set-info :category "industrial")
(set-info :status unknown)
        ;test regex String pattern = "((0|1)?\\d{1,2}|2[0-4]\\d|25[0-5]\\.){3}((0|1)?\\d{1,2}|2[0-4]\\d|25[0-5])";
(declare-const X String)
(assert (str.in_re X (re.++ (str.to_re "S") (re.++ (str.to_re "t") (re.++ (str.to_re "r") (re.++ (str.to_re "i") (re.++ (str.to_re "n") (re.++ (str.to_re "g") (re.++ (str.to_re " ") (re.++ (str.to_re "p") (re.++ (str.to_re "a") (re.++ (str.to_re "t") (re.++ (str.to_re "t") (re.++ (str.to_re "e") (re.++ (str.to_re "r") (re.++ (str.to_re "n") (re.++ (str.to_re " ") (re.++ (str.to_re "=") (re.++ (str.to_re " ") (re.++ (str.to_re "\u{22}") (re.++ ((_ re.loop 3 3) (re.union (re.union (re.++ (re.opt (re.union (str.to_re "0") (str.to_re "1"))) (re.++ (str.to_re "\\") ((_ re.loop 1 2) (str.to_re "d")))) (re.++ (str.to_re "2") (re.++ (re.range "0" "4") (re.++ (str.to_re "\\") (str.to_re "d"))))) (re.++ (str.to_re "25") (re.++ (re.range "0" "5") (re.++ (str.to_re "\\") (re.diff re.allchar (str.to_re "\n"))))))) (re.++ (re.union (re.union (re.++ (re.opt (re.union (str.to_re "0") (str.to_re "1"))) (re.++ (str.to_re "\\") ((_ re.loop 1 2) (str.to_re "d")))) (re.++ (str.to_re "2") (re.++ (re.range "0" "4") (re.++ (str.to_re "\\") (str.to_re "d"))))) (re.++ (str.to_re "25") (re.range "0" "5"))) (re.++ (str.to_re "\u{22}") (str.to_re ";"))))))))))))))))))))))))
; sanitize danger characters:  < > ' " &
(assert (not (str.in_re X (re.++ re.all (re.union (str.to_re "\u{3c}") (str.to_re "\u{3e}") (str.to_re "\u{27}") (str.to_re "\u{22}") (str.to_re "\u{26}")) re.all))))
(assert (< 20 (str.len X)))
(check-sat)
(exit)
